This is Ipopt version 3.12.3, running with linear solver mumps.
NOTE: Other linear solvers might be more efficient (see Ipopt documentation).

Number of nonzeros in equality constraint Jacobian...:   192417
Number of nonzeros in inequality constraint Jacobian.:    40541
Number of nonzeros in Lagrangian Hessian.............:    48453

Total number of variables............................:    40541
                     variables with only lower bounds:        0
                variables with lower and upper bounds:        0
                     variables with only upper bounds:        0
Total number of equality constraints.................:    36456
Total number of inequality constraints...............:    40541
        inequality constraints with only lower bounds:        0
   inequality constraints with lower and upper bounds:    40541
        inequality constraints with only upper bounds:        0

iter    objective    inf_pr   inf_du lg(mu)  ||d||  lg(rg) alpha_du alpha_pr  ls
   0 3.9990000e-005 6.93e+002 1.09e-006  -1.0 0.00e+000    -  0.00e+000 0.00e+000   0
   1 2.0083166e+002 1.21e+002 1.40e+001  -1.0 2.47e+000    -  6.30e-002 9.95e-001h  1
   2 1.7427007e+002 2.63e+001 1.42e+001  -1.0 3.09e-001   0.0 7.15e-001 1.00e+000f  1
   3 1.5062565e+002 2.19e+002 1.21e+001  -1.0 2.14e+000  -0.5 1.10e-001 5.89e-001f  1
   4 1.3864488e+002 4.69e+001 5.97e+000  -1.0 1.81e+000  -1.0 4.05e-001 5.38e-001f  1
   5 1.3327320e+002 8.98e+001 4.12e+000  -1.0 3.64e+000  -1.4 5.51e-001 1.00e+000f  1
   6 1.4008705e+002 4.85e+001 5.25e+000  -1.0 8.97e-001  -1.0 1.00e+000 1.00e+000f  1
   7 1.4361733e+002 1.37e+001 2.46e+000  -1.0 4.49e-001  -0.6 1.00e+000 1.00e+000f  1
   8 1.4554735e+002 1.67e+001 2.06e-001  -1.0 2.74e-001  -1.1 1.00e+000 1.00e+000h  1
   9 9.2066318e+001 7.29e+001 4.95e-001  -1.7 3.41e-001  -0.6 9.87e-001 1.00e+000f  1
iter    objective    inf_pr   inf_du lg(mu)  ||d||  lg(rg) alpha_du alpha_pr  ls
  10 5.4893885e+001 4.01e+001 7.12e-002  -1.7 3.12e-001  -1.1 1.00e+000 1.00e+000f  1
  11 5.0013127e+001 8.63e+000 2.13e-002  -1.7 1.02e-001  -0.7 1.00e+000 1.00e+000h  1
  12 4.6987455e+001 1.74e+001 1.46e-001  -1.7 3.85e-001  -1.2 1.00e+000 1.00e+000h  1
  13 4.5753754e+001 1.12e+001 3.01e-002  -1.7 5.30e-001  -1.6 1.00e+000 1.00e+000h  1
  14 4.5580586e+001 6.40e-001 1.09e-002  -1.7 1.76e-001  -1.2 1.00e+000 1.00e+000h  1
  15 2.6487099e+001 5.71e+001 4.88e-001  -2.5 4.41e-001  -1.7 8.66e-001 1.00e+000f  1
  16 2.1226146e+001 6.03e+000 1.96e-002  -2.5 1.65e-001  -1.3 1.00e+000 1.00e+000h  1
  17 1.8318716e+001 1.34e+001 5.15e-002  -2.5 2.54e-001  -1.7 1.00e+000 1.00e+000h  1
  18 1.7224828e+001 3.12e+001 8.19e-003  -2.5 6.60e-001  -2.2 1.00e+000 9.50e-001h  1
  19 1.7026391e+001 1.93e+001 2.01e-002  -2.5 3.99e-001  -1.8 1.00e+000 1.00e+000h  1
iter    objective    inf_pr   inf_du lg(mu)  ||d||  lg(rg) alpha_du alpha_pr  ls
  20 1.6851321e+001 4.69e+000 4.57e-003  -2.5 6.47e-001  -2.3 1.00e+000 1.00e+000h  1
  21 1.6757639e+001 1.01e+002 8.47e-003  -2.5 1.34e+000  -2.7 1.00e+000 1.00e+000h  1
  22 1.6742081e+001 1.10e+001 7.07e-003  -2.5 4.35e-001  -2.3 1.00e+000 1.00e+000h  1
  23 1.6725692e+001 1.01e+001 1.35e-003  -2.5 8.40e-001  -2.8 1.00e+000 1.00e+000h  1
  24 1.6721511e+001 2.85e-001 1.09e-003  -2.5 2.55e-001  -2.4 1.00e+000 1.00e+000h  1
  25 1.2676783e+001 3.02e+001 1.30e-001  -3.8 6.40e-001  -2.8 6.95e-001 9.24e-001f  1
  26 1.0163274e+001 3.59e+002 4.63e-002  -3.8 3.53e+000  -3.3 6.49e-001 6.64e-001h  1
  27 7.4407090e+000 4.09e+002 2.56e-002  -3.8 1.64e+000  -2.9 6.60e-001 1.00e+000h  1
  28 6.7285903e+000 1.54e+002 1.10e-002  -3.8 4.82e-001  -2.5 1.00e+000 8.50e-001h  1
  29 6.0910642e+000 4.31e+001 2.37e-002  -3.8 7.23e-001  -2.9 1.00e+000 7.99e-001h  1
iter    objective    inf_pr   inf_du lg(mu)  ||d||  lg(rg) alpha_du alpha_pr  ls
  30 5.9152424e+000 4.49e+000 9.97e-003  -3.8 3.21e-001  -2.5 8.36e-001 8.99e-001h  1
  31 5.7649500e+000 8.15e+000 1.94e-003  -3.8 4.26e-001  -3.0 1.00e+000 1.00e+000h  1
  32 5.7158680e+000 1.65e+001 1.36e-003  -3.8 8.76e-001  -3.5 1.00e+000 1.00e+000h  1
  33 5.7100133e+000 6.56e+000 4.86e-003  -3.8 2.82e-001  -3.1 1.00e+000 1.00e+000h  1
  34 5.7051506e+000 1.66e+001 3.69e-003  -3.8 6.73e-001  -3.5 1.00e+000 1.00e+000h  1
  35 5.7020742e+000 8.71e+000 1.78e-003  -3.8 9.43e-001  -4.0 1.00e+000 1.00e+000h  1
  36 5.7014726e+000 3.19e-001 8.99e-005  -3.8 1.65e-001  -3.6 1.00e+000 1.00e+000h  1
  37 5.7010046e+000 5.36e-001 8.71e-005  -3.8 1.85e-001  -4.1 1.00e+000 1.00e+000h  1
  38 5.7009015e+000 4.02e-002 9.91e-006  -3.8 4.23e-002  -3.6 1.00e+000 1.00e+000h  1
  39 5.7007897e+000 6.54e-002 3.01e-005  -3.8 9.59e-002  -4.1 1.00e+000 1.00e+000h  1
iter    objective    inf_pr   inf_du lg(mu)  ||d||  lg(rg) alpha_du alpha_pr  ls
  40 5.7007527e+000 5.65e-003 9.87e-006  -3.8 4.74e-002  -3.7 1.00e+000 1.00e+000h  1
  41 5.7005761e+000 2.32e-001 1.07e-003  -3.8 4.53e-001  -4.2 1.00e+000 1.00e+000H  1
  42 5.7004171e+000 1.01e-001 1.80e-004  -3.8 2.34e-001  -3.7 1.00e+000 1.00e+000h  1
  43 5.7002404e+000 6.76e-001 1.33e-003  -3.8 6.76e-001  -4.2 1.00e+000 1.00e+000h  1
  44 5.7002333e+000 3.68e-002 1.11e-005  -3.8 1.07e-001    -  1.00e+000 1.00e+000h  1
  45 5.7002285e+000 2.79e-005 1.31e-008  -3.8 2.46e-003    -  1.00e+000 1.00e+000h  1
  46 5.3011890e+000 1.31e+001 1.39e-002  -5.7 1.17e+000    -  5.44e-001 2.54e-001f  1
  47 4.6946638e+000 6.76e+001 4.74e-003  -5.7 1.15e+000    -  3.59e-001 4.56e-001h  1
  48 4.5469502e+000 5.49e+001 3.94e-003  -5.7 2.75e+000  -3.8 7.87e-002 1.92e-001h  1
  49 4.4240263e+000 4.34e+001 1.08e-002  -5.7 7.85e-001  -3.4 4.00e-002 2.14e-001h  1
iter    objective    inf_pr   inf_du lg(mu)  ||d||  lg(rg) alpha_du alpha_pr  ls
  50 4.3047653e+000 3.08e+001 1.10e-002  -5.7 8.34e-001  -2.9 6.34e-001 3.05e-001h  1
  51 4.2127546e+000 2.01e+001 4.74e-003  -5.7 2.21e-001  -2.5 1.08e-001 3.81e-001h  1
  52 4.1765499e+000 1.37e+001 1.03e-002  -5.7 1.09e-001  -2.1 6.04e-001 3.20e-001h  1
  53 4.1059291e+000 8.52e+000 9.33e-003  -5.7 3.26e-001  -2.6 4.97e-001 3.80e-001h  1
  54 4.1019304e+000 8.39e+000 6.06e-002  -5.7 1.16e+001  -3.0 1.39e-001 1.51e-002h  1
  55 4.1003207e+000 8.35e+000 4.61e-002  -5.7 1.01e+000  -3.5 3.80e-001 5.53e-003h  1
  56 4.0823619e+000 1.69e+001 3.71e-002  -5.7 4.59e+000  -4.0 1.71e-001 5.55e-002h  1
  57 4.0033686e+000 1.13e+001 1.40e-002  -5.7 1.26e+000  -3.6 7.11e-001 3.31e-001h  1
  58 3.9984406e+000 1.08e+001 2.04e-002  -5.7 2.93e-001  -3.1 1.00e+000 4.06e-002h  1
  59 3.9482919e+000 2.06e+001 1.34e-002  -5.7 1.14e+000  -3.6 7.78e-001 3.80e-001h  1
iter    objective    inf_pr   inf_du lg(mu)  ||d||  lg(rg) alpha_du alpha_pr  ls
  60 3.9240803e+000 1.27e+001 7.55e-003  -5.7 2.18e-001  -3.2 1.51e-001 4.04e-001h  1
  61 3.9122510e+000 1.01e+001 6.10e-003  -5.7 7.84e-001  -3.7 6.00e-001 2.47e-001h  1
  62 3.8955410e+000 6.96e+000 2.34e-003  -5.7 3.82e-001  -3.2 7.64e-001 6.36e-001h  1
  63 3.8870705e+000 1.09e+000 6.09e-004  -5.7 1.45e-001  -2.8 1.00e+000 1.00e+000h  1
  64 3.8855215e+000 1.54e-001 2.68e-004  -5.7 6.35e-002  -2.4 1.00e+000 1.00e+000h  1
  65 3.8830545e+000 5.66e+000 1.12e-003  -5.7 4.31e-001  -2.9 1.00e+000 1.00e+000h  1
  66 3.8825593e+000 6.08e+000 5.66e-003  -5.7 1.93e+001  -3.3 9.24e-002 1.30e-002h  1
  67 3.8816513e+000 4.81e+000 4.45e-003  -5.7 7.24e-001  -2.9 8.43e-002 2.59e-001h  1
  68 3.8807011e+000 4.86e+000 7.36e-003  -5.7 2.78e+000  -3.4 5.09e-001 1.12e-001h  1
  69 3.8784336e+000 2.38e+001 1.10e-002  -5.7 7.59e-001  -3.0 1.04e-001 7.43e-001f  1
iter    objective    inf_pr   inf_du lg(mu)  ||d||  lg(rg) alpha_du alpha_pr  ls
  70 3.8774338e+000 1.29e+001 6.72e-003  -5.7 2.38e-001  -2.5 4.84e-001 4.69e-001h  1
  71 3.8752779e+000 1.01e+000 9.94e-003  -5.7 5.58e-001  -3.0 5.31e-001 1.00e+000h  1
  72 3.8739429e+000 3.07e+000 6.79e-003  -5.7 8.93e-001  -3.5 3.27e-001 3.12e-001h  1
  73 3.8725471e+000 6.54e-001 1.04e-003  -5.7 3.62e-001  -3.1 1.00e+000 9.32e-001h  1
  74 3.8712522e+000 1.57e+000 7.12e-004  -5.7 4.91e-001  -3.5 7.56e-001 6.08e-001h  1
  75 3.8705544e+000 4.70e-001 2.01e-004  -5.7 1.71e-001  -3.1 1.00e+000 1.00e+000h  1
  76 3.8696535e+000 3.69e+000 9.59e-004  -5.7 4.73e-001  -3.6 9.16e-001 6.27e-001h  1
  77 3.8691910e+000 3.12e+000 3.50e-003  -5.7 1.97e+000  -4.1 5.05e-001 1.82e-001h  1
  78 3.8688717e+000 2.27e-001 1.47e-004  -5.7 8.17e-002  -2.7 1.00e+000 1.00e+000h  1
  79 3.8683443e+000 1.91e+000 3.39e-004  -5.7 3.32e-001  -3.2 1.00e+000 1.00e+000h  1
iter    objective    inf_pr   inf_du lg(mu)  ||d||  lg(rg) alpha_du alpha_pr  ls
  80 3.8682021e+000 1.23e+000 2.38e-003  -5.7 9.79e-002  -2.8 1.00e+000 4.04e-001h  1
  81 3.8678313e+000 5.25e-001 1.86e-003  -5.7 1.08e-001  -3.3 5.13e-001 1.00e+000h  1
  82 3.8676120e+000 5.53e-001 4.87e-003  -5.7 2.55e-001  -3.7 8.39e-001 2.36e-001h  1
  83 3.8676012e+000 5.40e-001 2.42e-003  -5.7 1.17e-001  -3.3 1.00e+000 2.38e-002h  1
  84 3.8667715e+000 2.68e+000 2.71e-004  -5.7 3.10e-001  -3.8 1.00e+000 1.00e+000f  1
  85 3.8663130e+000 9.03e-001 2.90e-004  -5.7 2.14e-001  -3.4 1.00e+000 7.40e-001h  1
  86 3.8658282e+000 8.11e-001 6.96e-004  -5.7 6.82e-001  -3.9 1.00e+000 4.69e-001h  1
  87 3.8657841e+000 1.97e-001 5.00e-004  -5.7 7.83e-002  -3.4 7.88e-001 1.00e+000h  1
  88 3.8655367e+000 3.57e-001 2.26e-004  -5.7 3.00e-001  -3.9 1.00e+000 1.00e+000h  1
  89 3.8652864e+000 1.16e+001 3.47e-004  -5.7 4.51e-001  -4.4 1.00e+000 1.00e+000h  1
iter    objective    inf_pr   inf_du lg(mu)  ||d||  lg(rg) alpha_du alpha_pr  ls
  90 3.8650748e+000 1.52e+001 1.02e-003  -5.7 8.96e-001  -4.9 1.00e+000 4.90e-001h  1
  91 3.8650854e+000 1.50e+001 1.88e-003  -5.7 3.14e+001  -4.4 8.95e-002 1.17e-002h  2
  92 3.8648802e+000 4.24e-001 7.80e-005  -5.7 9.89e-002  -3.1 1.00e+000 1.00e+000h  1
  93 3.8648688e+000 2.85e+000 2.80e-004  -5.7 3.89e-001  -3.6 1.00e+000 1.00e+000h  1
  94 3.8648954e+000 1.27e+000 3.41e-004  -5.7 2.53e-001    -  1.00e+000 1.00e+000h  1
  95 3.8648877e+000 1.41e+000 1.55e-002  -5.7 3.80e+000  -4.1 6.52e-001 2.37e-002h  4
  96 3.8648297e+000 4.99e-001 5.18e-005  -5.7 1.60e-001  -3.6 1.00e+000 1.00e+000h  1
  97 3.8648072e+000 1.34e+000 1.11e-002  -5.7 1.36e+000  -4.1 1.00e+000 1.96e-001h  3
  98 3.8647721e+000 2.17e+000 3.30e-002  -5.7 3.21e+000  -4.6 1.00e+000 1.06e-001h  3
  99 3.8647176e+000 1.07e+000 3.78e-004  -5.7 4.97e-001    -  1.00e+000 1.00e+000h  1
iter    objective    inf_pr   inf_du lg(mu)  ||d||  lg(rg) alpha_du alpha_pr  ls
 100 3.8646583e+000 1.87e-001 6.75e-005  -5.7 1.80e-001    -  1.00e+000 1.00e+000h  1
 101 3.8646584e+000 7.53e-004 1.33e-007  -5.7 1.02e-002    -  1.00e+000 1.00e+000h  1
 102 3.8646584e+000 8.55e-009 2.16e-012  -5.7 2.19e-005    -  1.00e+000 1.00e+000h  1
 103 3.8602526e+000 6.19e-001 5.38e-003  -7.0 4.27e-001    -  5.77e-001 2.42e-001f  1
 104 3.8547947e+000 5.30e+000 3.57e-003  -7.0 4.03e-001    -  4.55e-001 4.13e-001h  1
 105 3.8517306e+000 2.80e+000 4.24e-003  -7.0 7.04e-002  -3.3 8.13e-001 4.85e-001h  1
 106 3.8497167e+000 5.02e+000 3.87e-003  -7.0 2.63e-001  -3.7 1.00e+000 5.59e-001h  1
 107 3.8494950e+000 4.46e+000 3.75e-003  -7.0 7.17e-001    -  2.48e-001 1.15e-001h  1
 108 3.8487873e+000 3.84e+000 3.34e-003  -7.0 3.13e-001  -4.2 9.97e-001 5.31e-001h  1
 109 3.8483028e+000 9.18e-001 3.89e-004  -7.0 1.23e-001  -3.8 1.00e+000 9.08e-001h  1
iter    objective    inf_pr   inf_du lg(mu)  ||d||  lg(rg) alpha_du alpha_pr  ls
 110 3.8482417e+000 2.31e-001 3.32e-005  -7.0 6.85e-002  -3.4 1.00e+000 1.00e+000h  1
 111 3.8482230e+000 8.14e-001 1.84e-004  -7.0 1.41e-001  -3.8 2.24e-001 6.01e-001h  1
 112 3.8482044e+000 6.70e+000 1.06e-004  -7.0 1.85e-001  -4.3 1.00e+000 9.04e-001f  1
 113 3.8481960e+000 6.14e+000 9.42e-005  -7.0 6.44e-001  -4.8 3.66e-002 7.01e-002h  1
 114 3.8481908e+000 5.45e+000 2.98e-004  -7.0 2.73e-001    -  4.28e-001 1.14e-001f  1
 115 3.8481787e+000 2.80e+000 2.50e-004  -7.0 1.87e-001    -  4.10e-001 4.99e-001h  1
 116 3.8481703e+000 9.24e-002 1.24e-004  -7.0 8.19e-002  -5.3 6.46e-001 1.00e+000h  1
 117 3.8481703e+000 8.95e-002 1.07e-003  -7.0 4.25e-001  -4.8 1.00e+000 3.12e-002h  6
 118 3.8481693e+000 2.46e-002 5.79e-006  -7.0 3.29e-002  -4.4 1.00e+000 1.00e+000h  1
 119 3.8481686e+000 1.68e-002 3.48e-006  -7.0 2.69e-002  -4.0 1.00e+000 1.00e+000h  1
iter    objective    inf_pr   inf_du lg(mu)  ||d||  lg(rg) alpha_du alpha_pr  ls
 120 3.8481679e+000 4.67e-003 3.87e-006  -7.0 1.41e-002  -3.6 1.00e+000 1.00e+000h  1
 121 3.8481677e+000 1.16e-002 3.14e-004  -7.0 1.44e-001  -4.0 1.00e+000 1.25e-001h  4
 122 3.8481670e+000 2.22e-002 7.58e-006  -7.0 3.11e-002  -3.6 1.00e+000 1.00e+000h  1
 123 3.8481658e+000 4.93e-003 9.38e-006  -7.0 1.45e-002  -3.2 1.00e+000 1.00e+000h  1
 124 3.8481609e+000 2.65e-002 2.22e-005  -7.0 7.94e-002  -3.7 1.00e+000 1.00e+000H  1
 125 3.8481575e+000 4.37e-002 2.55e-005  -7.0 4.42e-002  -3.2 1.00e+000 1.00e+000h  1
 126 3.8481312e+000 7.08e-001 2.57e-003  -7.0 4.51e-001  -3.7 1.00e+000 5.31e-001H  1
 127 3.8480834e+000 3.24e-001 7.60e-005  -7.0 1.48e-001  -3.3 1.00e+000 1.00e+000h  1
 128 3.8480344e+000 2.62e+000 3.07e-004  -7.0 5.38e-001  -3.8 1.00e+000 1.00e+000h  1
 129 3.8479342e+000 6.71e-001 2.32e-004  -7.0 3.93e-001    -  1.00e+000 1.00e+000h  1
iter    objective    inf_pr   inf_du lg(mu)  ||d||  lg(rg) alpha_du alpha_pr  ls
 130 3.8479091e+000 5.35e-002 1.49e-005  -7.0 7.91e-002    -  1.00e+000 1.00e+000h  1
 131 3.8479098e+000 1.87e-005 3.78e-009  -7.0 1.26e-003    -  1.00e+000 1.00e+000h  1
 132 3.8479098e+000 5.07e-012 7.62e-016  -7.0 4.55e-007    -  1.00e+000 1.00e+000h  1

Number of Iterations....: 132

                                   (scaled)                 (unscaled)
Objective...............:  3.8479097661011132e+000   3.8479097661011132e+000
Dual infeasibility......:  7.6154148837145018e-016   7.6154148837145018e-016
Constraint violation....:  9.6228312248611007e-013   5.0661697059695143e-012
Complementarity.........:  9.0909090926000075e-008   9.0909090926000075e-008
Overall NLP error.......:  9.0909090926000075e-008   9.0909090926000075e-008


Number of objective function evaluations             = 161
Number of objective gradient evaluations             = 133
Number of equality constraint evaluations            = 161
Number of inequality constraint evaluations          = 161
Number of equality constraint Jacobian evaluations   = 133
Number of inequality constraint Jacobian evaluations = 133
Number of Lagrangian Hessian evaluations             = 132
Total CPU secs in IPOPT (w/o function evaluations)   =     42.714
Total CPU secs in NLP function evaluations           =      6.980

EXIT: Optimal Solution Found.
               t_proc [s]   t_wall [s]    n_eval
       nlp_f        0.061       0.0625       161
       nlp_g        0.594        0.594       161
  nlp_grad_f        0.078       0.0781       134
  nlp_hess_l         3.01            3       132
   nlp_jac_g         3.18         3.17       134
      solver         49.7         49.7         1
